[TITLE]
Riverbend | neighborhood stormwater study
A compact demonstration model. Local coordinates are in feet.

[OPTIONS]
FLOW_UNITS CFS
INFILTRATION HORTON
FLOW_ROUTING DYNWAVE
START_DATE 01/01/2024
START_TIME 00:00:00
REPORT_START_DATE 01/01/2024
REPORT_START_TIME 00:00:00
END_DATE 01/01/2024
END_TIME 06:00:00
REPORT_STEP 00:05:00
WET_STEP 00:01:00
DRY_STEP 00:05:00
ROUTING_STEP 00:00:10
ALLOW_PONDING NO

[RAINGAGES]
RG1 INTENSITY 0:15 1.0 TIMESERIES Storm

[SUBCATCHMENTS]
S1 RG1 J1 4.2 65 350 1.5 0
S2 RG1 J2 3.8 50 320 1.2 0
S3 RG1 J3 5.1 72 400 1.8 0
S4 RG1 J4 2.9 35 260 1.0 0
S5 RG1 J5 4.5 55 360 1.3 0

[SUBAREAS]
S1 0.015 0.15 0.05 0.1 25 OUTLET
S2 0.015 0.15 0.05 0.1 25 OUTLET
S3 0.015 0.15 0.05 0.1 25 OUTLET
S4 0.015 0.15 0.05 0.1 25 OUTLET
S5 0.015 0.15 0.05 0.1 25 OUTLET

[INFILTRATION]
S1 3.0 0.5 4 7 0
S2 3.0 0.5 4 7 0
S3 3.0 0.5 4 7 0
S4 3.0 0.5 4 7 0
S5 3.0 0.5 4 7 0

[JUNCTIONS]
J1 112 6 0 0 0
J2 110 6 0 0 0
J3 108 6 0 0 0
J4 108 6 0 0 0
J5 106 6 0 0 0
J6 104 6 0 0 0
J7 102 6 0 0 0

[OUTFALLS]
O1 100 FREE NO

[CONDUITS]
C1 J1 J2 350 0.013 0 0 0 0
C2 J2 J3 350 0.013 0 0 0 0
C3 J3 J5 350 0.013 0 0 0 0
C4 J4 J5 300 0.013 0 0 0 0
C5 J5 J6 350 0.013 0 0 0 0
C6 J6 J7 350 0.013 0 0 0 0
C7 J7 O1 350 0.013 0 0 0 0

[XSECTIONS]
C1 CIRCULAR 2 0 0 0 1
C2 CIRCULAR 2.5 0 0 0 1
C3 CIRCULAR 3 0 0 0 1
C4 CIRCULAR 2 0 0 0 1
C5 CIRCULAR 3.5 0 0 0 1
C6 CIRCULAR 3.5 0 0 0 1
C7 CIRCULAR 4 0 0 0 1

[TIMESERIES]
Storm 01/01/2024 00:00 0
Storm 00:15 0.15
Storm 00:30 0.35
Storm 00:45 0.65
Storm 01:00 1.2
Storm 01:15 1.8
Storm 01:30 1.2
Storm 01:45 0.7
Storm 02:00 0.3
Storm 02:15 0.1
Storm 02:30 0
Storm 06:00 0

[REPORT]
INPUT NO
CONTROLS NO
SUBCATCHMENTS ALL
NODES ALL
LINKS ALL

[COORDINATES]
J1 100 800
J2 380 640
J3 650 480
J4 200 350
J5 510 260
J6 800 220
J7 1100 100
O1 1400 60

[VERTICES]
C1 260 780
C2 560 630
C5 650 220
C7 1250 60

[POLYGONS]
S1 -20 1040
S1 270 1040
S1 270 860
S1 80 830
S1 -20 920
S2 300 970
S2 630 970
S2 630 720
S2 420 680
S2 300 800
S3 710 790
S3 1060 760
S3 1060 460
S3 730 440
S3 670 570
S4 -30 620
S4 210 620
S4 270 470
S4 170 390
S4 -30 440
S5 310 510
S5 540 440
S5 520 310
S5 270 280
S5 270 400

[SYMBOLS]
RG1 1130 880
